Gurobi 12.0.3:   lim:time = 2000
Set parameter LogToConsole to value 1
  tech:outlev = 1
Set parameter InfUnbdInfo to value 1
Gurobi Optimizer version 12.0.3 build v12.0.3rc0 (win64 - Windows 11+.0 (26200.2))

CPU model: 12th Gen Intel(R) Core(TM) i7-12700, instruction set [SSE2|AVX|AVX2]
Thread count: 12 physical cores, 20 logical processors, using up to 20 threads

Non-default parameters:
TimeLimit  2000
InfUnbdInfo  1

Optimize a model with 36150 rows, 10432 columns and 232768 nonzeros
Model fingerprint: 0x39831719
Model has 5850 quadratic constraints
Model has 676 general nonlinear constraints (1456 nonlinear terms)
Variable types: 4640 continuous, 5792 integer (0 binary)
Coefficient statistics:
  Matrix range     [1e+00, 1e+06]
  QMatrix range    [1e+00, 1e+00]
  QLMatrix range   [1e+00, 1e+01]
  Objective range  [3e+01, 5e+02]
  Bounds range     [1e+00, 1e+06]
  RHS range        [1e+00, 1e+06]
Presolve model has 676 nlconstr
Added 884 variables to disaggregate expressions.
Presolve removed 424 rows and 1538 columns
Presolve time: 2.09s
Presolved: 51248 rows, 15083 columns, 283207 nonzeros
Presolved model has 1300 SOS constraint(s)
Presolved model has 3250 bilinear constraint(s)

Solving non-convex MIQCP

Variable types: 9293 continuous, 5790 integer (5644 binary)

Root simplex log...

Iteration    Objective       Primal Inf.    Dual Inf.      Time
       0    0.0000000e+00   2.120867e+05   0.000000e+00      5s
    3872    9.4000000e+01   0.000000e+00   0.000000e+00      5s

Root relaxation: objective 9.400000e+01, 3872 iterations, 0.25 seconds (0.24 work units)
Total elapsed time = 5.49s (DegenMoves)

    Nodes    |    Current Node    |     Objective Bounds      |     Work
 Expl Unexpl |  Obj  Depth IntInf | Incumbent    BestBd   Gap | It/Node Time

     0     0   94.00000    0  139          -   94.00000      -     -    6s
     0     0   94.00000    0  804          -   94.00000      -     -    9s
     0     0   94.00000    0  784          -   94.00000      -     -    9s
     0     0   94.00000    0  802          -   94.00000      -     -   17s
     0     0   94.00000    0   95          -   94.00000      -     -   23s
     0     0   94.00000    0  103          -   94.00000      -     -   23s
     0     0   94.00000    0   98          -   94.00000      -     -   26s
     0     0   94.00000    0  549          -   94.00000      -     -   29s
     0     0   94.00000    0  127          -   94.00000      -     -   33s
     0     0   94.00000    0  618          -   94.00000      -     -   36s
     0     0   94.00000    0  134          -   94.00000      -     -   40s
     0     0   94.00000    0  620          -   94.00000      -     -   41s
     0     0   94.00000    0  108          -   94.00000      -     -   44s
     0     0   94.00000    0  108          -   94.00000      -     -   53s
     0     0   94.00000    0   96          -   94.00000      -     -   63s
     0     0   94.00000    0   95          -   94.00000      -     -   63s
     0     0   94.00000    0  699          -   94.00000      -     -   65s
     0     0   94.00000    0  725          -   94.00000      -     -   65s
     0     0   94.00000    0  695          -   94.00000      -     -   66s
     0     0   94.00000    0   96          -   94.00000      -     -   69s
     0     0   94.00000    0  517          -   94.00000      -     -   71s
     0     0   94.00000    0   85          -   94.00000      -     -   74s
     0     0   94.00000    0  356          -   94.00000      -     -   75s
     0     0   94.00000    0   96          -   94.00000      -     -   76s
     0     0   94.00000    0  428          -   94.00000      -     -   77s
     0     0   94.00000    0   80          -   94.00000      -     -   78s
     0     0   94.00000    0  368          -   94.00000      -     -   79s
     0     0   94.00000    0   94          -   94.00000      -     -   81s
     0     0   94.00000    0   94          -   94.00000      -     -   82s
H    0     0                    4848.0000000   94.00000  98.1%     -   89s
H    0     0                    4816.0000000   94.00000  98.0%     -   89s
H    0     0                    1658.0000000   94.00000  94.3%     -   89s
H    0     0                    1408.0000000   94.00000  93.3%     -   91s
H    0     0                    1314.0000000   94.00000  92.8%     -   91s
H    0     0                    1158.0000000   94.00000  91.9%     -   91s
     0     2   94.00000    0   94 1158.00000   94.00000  91.9%     -   92s
     7    14   94.00000    3  397 1158.00000   94.00000  91.9%   956   97s
    15    24   94.00000    4  363 1158.00000   94.00000  91.9%   622  100s
H   27    34                    1126.0000000   94.00000  91.7%   507  104s
H   30    34                    1002.0000000   94.00000  90.6%   471  104s
    39    52   94.00000    6  365 1002.00000   94.00000  90.6%   591  108s
    79    86  156.00000    9  356 1002.00000   94.00000  90.6%   480  114s
H   82    86                     970.0000000   94.00000  90.3%   465  114s
H   83    86                     846.0000000   94.00000  88.9%   459  114s
    91   110   94.00000    9  352  846.00000   94.00000  88.9%   424  119s
H  101   110                     752.0000000   94.00000  87.5%   495  119s
H  107   110                     722.0000000   94.00000  87.0%   526  119s
   115   143   94.00000   10  129  722.00000   94.00000  87.0%   668  130s
H  117   143                     690.0000000   94.00000  86.4%   664  130s
H  118   143                     566.0000000   94.00000  83.4%   658  130s
   150   217   94.00000   12  411  566.00000   94.00000  83.4%   723  149s
H  234   306                     534.0000000   94.00000  82.4%   590  173s
H  242   306                     472.0000000   94.00000  80.1%   577  173s
   327   490   94.00000   20  216  472.00000   94.00000  80.1%   549  210s
H  343   490                     440.0000000   94.00000  78.6%   542  210s
   555   672   94.00000   34  359  440.00000   94.00000  78.6%   490  259s
H  573   672                     408.0000000   94.00000  77.0%   485  259s
   781  1123   94.00000   47  257  408.00000   94.00000  77.0%   434  334s
H 1261  1123                     376.0000000   94.00000  75.0%   364  334s
  1288  1744  250.00000   76  286  376.00000   94.00000  75.0%   360  432s
  2110  2472   94.00000  120  257  376.00000   94.00000  75.0%   307  524s
H 3035  2957                     314.0000000   94.00000  70.1%   256  604s
  3608  3630   94.00000  185  330  314.00000   94.00000  70.1%   235  721s
  4535  4368 infeasible  264       314.00000   94.00000  70.1%   203  818s
  5518  4369   94.00000  112 1661  314.00000   94.00000  70.1%   180  831s
  5520  4370   94.00000   76   56  314.00000   94.00000  70.1%   180  836s
  5522  4372   94.00000  121  427  314.00000   94.00000  70.1%   179  840s
  5523  4372  250.00000   52   61  314.00000   94.00000  70.1%   179  846s
  5525  4374  126.00000  148   61  314.00000   94.00000  70.1%   179  850s
  5527  4375  250.00000  139   59  314.00000   94.00000  70.1%   179  858s
  5528  4376   94.00000   59  368  314.00000   94.00000  70.1%   179  860s
  5529  4376  282.00000  172   57  314.00000   94.00000  70.1%   179  865s
  5532  4378  282.00000  261   58  314.00000   94.00000  70.1%   179  870s
  5538  4382   94.00000  166   88  314.00000   94.00000  70.1%   179  875s
  5541  4384   94.00000   14   54  314.00000   94.00000  70.1%   179  880s
  5542  4385   94.00000  125   54  314.00000   94.00000  70.1%   179  887s
  5543  4389   94.00000   10  281  314.00000   94.00000  70.1%   194  893s
  5545  4392   94.00000   11  272  314.00000   94.00000  70.1%   194  895s
  5557  4405   94.00000   13  267  314.00000   94.00000  70.1%   194  901s
  5569  4427   94.00000   14  267  314.00000   94.00000  70.1%   194  912s
  5598  4452  156.00000   15  332  314.00000   94.00000  70.1%   195  938s
  5652  4480   94.00000   17  527  314.00000   94.00000  70.1%   199  967s
  5702  4559   94.00000   19  286  314.00000   94.00000  70.1%   206 1007s
  5819  4675   94.00000   25  338  314.00000   94.00000  70.1%   209 1052s
  6027  4885   94.00000   33  253  314.00000   94.00000  70.1%   217 1133s
  6397  5143   94.00000   49  288  314.00000   94.00000  70.1%   224 1235s
  6915  5714   94.00000   66  247  314.00000   94.00000  70.1%   226 1342s
  7842  6040   94.00000   94  303  314.00000   94.00000  70.1%   222 1455s
  8723  6225   94.00000  119  234  314.00000   94.00000  70.1%   216 1522s
  9358  6714  250.00000  146  280  314.00000   94.00000  70.1%   211 1584s
 10231  7096   94.00000  132  268  314.00000   94.00000  70.1%   203 1654s
 11100  7371  250.00000  165  255  314.00000   94.00000  70.1%   193 1721s
H11749  6534                     284.0000000   94.00000  66.9%   186 1721s
 11979  6803  250.00000  192  280  284.00000   94.00000  66.9%   183 1803s
 12624  7157  250.00000   61  263  284.00000   94.00000  66.9%   178 1871s
 13287  7496  250.00000  126  228  284.00000   94.00000  66.9%   172 1928s
 13926  7849  250.00000  178  268  284.00000   94.00000  66.9%   166 1985s
 14582  8001  250.00000  225  231  284.00000   94.00000  66.9%   161 2000s

Cutting planes:
  Gomory: 14
  Cover: 40
  Implied bound: 43
  Projected implied bound: 2
  Clique: 5
  MIR: 19
  StrongCG: 11
  Flow cover: 197
  GUB cover: 9
  Zero half: 6
  RLT: 121
  Relax-and-lift: 64
  BQP: 1
  PSD: 15

Explored 15018 nodes (2496596 simplex iterations) in 2000.20 seconds (416.11 work units)
Thread count was 20 (of 20 available processors)

Solution count 10: 284 314 376 ... 722

Time limit reached
Best objective 2.840000000000e+02, best bound 9.400000000000e+01, gap 66.9014%

AMPL MP initial flat model has 9080 variables (78 integer, 5700 binary);
Objectives: 1 linear; 
Constraints:  35474 linear; 7202 quadratic;

AMPL MP final model has 10432 variables (106 integer, 5700 binary);
Objectives: 1 linear; 
Constraints:  36150 linear; 7202 quadratic;


Gurobi 12.0.3: time limit, feasible solution; objective 284
2.4966e+06 simplex iterations
15018 branching nodes
absmipgap=190, relmipgap=0.669014
lp, wp, hp: begin
1: 7.000000 9.000000 6.030000
2: 7.000000 9.000000 6.030000
3: 7.000000 9.000000 6.030000
4: 7.000000 9.000000 6.030000
5: 7.000000 9.000000 6.030000
6: 7.000000 9.000000 6.030000
7: 5.500000 2.000000 8.500000
8: 5.500000 2.000000 8.500000
9: 5.500000 2.000000 8.500000
10: 5.500000 2.000000 8.500000
11: 5.500000 2.000000 8.500000
12: 5.500000 2.000000 8.500000
13: 5.500000 2.000000 8.500000
14: 5.500000 2.000000 8.500000
15: 5.500000 2.000000 8.500000
16: 5.500000 2.000000 8.500000
17: 5.500000 2.000000 8.500000
18: 5.500000 2.000000 8.500000
19: 10.000000 8.000000 15.000000
20: 10.000000 8.000000 15.000000
21: 12.000000 7.000000 20.000000
22: 12.000000 7.000000 20.000000
23: 12.000000 7.000000 20.000000
24: 12.000000 7.000000 20.000000
25: 12.000000 7.000000 20.000000
26: 12.000000 7.000000 20.000000
lp, wp, hp: end
LB, WB, HB: begin
1: 28.000000 15.000000 15.000000
2: 28.000000 15.000000 15.000000
3: 28.000000 15.000000 15.000000
4: 28.000000 15.000000 15.000000
5: 28.000000 15.000000 15.000000
6: 28.000000 15.000000 15.000000
7: 28.000000 15.000000 15.000000
8: 28.000000 15.000000 15.000000
9: 28.000000 15.000000 15.000000
10: 28.000000 15.000000 15.000000
11: 42.000000 32.000000 26.000000
12: 42.000000 32.000000 26.000000
13: 42.000000 32.000000 26.000000
14: 42.000000 32.000000 26.000000
15: 42.000000 32.000000 26.000000
16: 42.000000 32.000000 26.000000
17: 42.000000 32.000000 26.000000
18: 42.000000 32.000000 26.000000
19: 42.000000 32.000000 26.000000
20: 42.000000 32.000000 26.000000
21: 45.700000 45.700000 40.600000
22: 45.700000 45.700000 40.600000
23: 45.700000 45.700000 40.600000
24: 45.700000 45.700000 40.600000
25: 45.700000 45.700000 40.600000
26: 45.700000 45.700000 40.600000
27: 45.700000 45.700000 40.600000
28: 45.700000 45.700000 40.600000
29: 45.700000 45.700000 40.600000
30: 45.700000 45.700000 40.600000
31: 61.000000 46.000000 61.000000
32: 61.000000 46.000000 61.000000
33: 61.000000 46.000000 61.000000
34: 61.000000 46.000000 61.000000
35: 61.000000 46.000000 61.000000
36: 61.000000 46.000000 61.000000
37: 61.000000 46.000000 61.000000
38: 61.000000 46.000000 61.000000
39: 61.000000 46.000000 61.000000
40: 61.000000 46.000000 61.000000
LB, WB, HB: end
l_px, l_py, w_px, w_py: begin
1: 0 1 1 0
2: 0 1 1 0
3: 0 1 1 0
4: 0 1 1 0
5: 1 0 0 1
6: 0 1 1 0
7: 1 0 0 1
8: 0 1 1 0
9: 0 1 1 0
10: 0 1 1 0
11: 0 1 1 0
12: 0 1 1 0
13: 1 0 0 1
14: 0 1 1 0
15: 0 1 1 0
16: 0 1 1 0
17: 0 1 1 0
18: 0 1 1 0
19: 1 0 0 1
20: 1 0 0 1
21: 1 0 0 1
22: 0 1 1 0
23: 1 0 0 1
24: 1 0 0 1
25: 1 0 0 1
26: 1 0 0 1
l_px, l_py, w_px, w_py: end
xp, yp, zp, on_floor: begin
1: 14.000000 8.000000 0.000000 1
2: 3.000000 13.000000 0.000000 1
3: 3.000000 9.000000 15.000000 0
4: 12.000000 0.000000 0.000000 1
5: 7.000000 0.000000 0.000000 1
6: 3.000000 9.000000 15.000000 0
7: 7.000000 9.000000 0.000000 1
8: 12.000000 7.000000 15.000000 0
9: 10.000000 2.000000 0.000000 1
10: 14.000000 2.000000 0.000000 1
11: 10.000000 3.000000 0.000000 1
12: 12.000000 8.000000 15.000000 0
13: 14.000000 9.000000 15.000000 0
14: 12.000000 7.000000 0.000000 1
15: 10.000000 9.000000 0.000000 1
16: 12.000000 2.000000 0.000000 1
17: 10.000000 11.000000 15.000000 0
18: 12.000000 3.000000 0.000000 1
19: 2.000000 9.000000 0.000000 1
20: 12.000000 7.000000 0.000000 1
21: 0.000000 2.000000 0.000000 1
22: 14.000000 11.000000 0.000000 1
23: 14.000000 7.000000 0.000000 1
24: 14.000000 0.000000 0.000000 1
25: 14.000000 0.000000 0.000000 1
26: 0.000000 2.000000 0.000000 1
xp, yp, zp, on_floor: end
product ->carton: begin
1 -> 1
2 -> 18
3 -> 19
4 -> 2
5 -> 3
6 -> 19
7 -> 18
8 -> 19
9 -> 2
10 -> 1
11 -> 1
12 -> 18
13 -> 19
14 -> 1
15 -> 1
16 -> 18
17 -> 18
18 -> 19
19 -> 19
20 -> 2
21 -> 18
22 -> 19
23 -> 18
24 -> 18
25 -> 19
26 -> 19
product ->carton: end
